proyfinal/src/viki/013/andrea/andrea-localstore/experimentInOfficeAgust.take6/worker_3/0feee0a0-fc9b-40d4-b7b8-1847e42a9660.als.cnf.out
Reading from standard input... Use '--help' for help.
============================[ Problem Statistics ]=============================
|                                                                             |
|  Number of variables:         87638                                         |
|  Number of clauses:          161767                                         |
|  Parse time:                   0.03 s                                       |
|                                                                             |
============================[ Search Statistics ]==============================
| Conflicts |          ORIGINAL         |          LEARNT          | Progress |
|           |    Vars  Clauses Literals |    Limit  Clauses Lit/Cl |          |
===============================================================================
|       100 |   62652   106209   265406 |    38943      100     11 | 28.510 % |
|       250 |   62652   106209   265406 |    42837      250     42 | 28.510 % |
|       475 |   62652   106209   265406 |    47121      475     67 | 28.510 % |
|       812 |   62651   106165   265316 |    51833      809     74 | 28.512 % |
|      1318 |   52363    76749   193074 |    57016     1306     82 | 40.251 % |
|      2077 |   52363    76749   193074 |    62718     2065     71 | 40.251 % |
|      3216 |   52345    76687   192927 |    68990     3198     65 | 40.271 % |
|      4924 |   52215    76128   191598 |    75889     4891     64 | 40.420 % |
|      7486 |   52122    75723   190624 |    83478     7445     60 | 40.526 % |
|     11330 |   51739    73987   186417 |    91826    11257     58 | 40.963 % |
|     17096 |   51487    73054   184289 |   101008    15349     58 | 41.250 % |
===============================================================================
restarts              : 65
conflicts             : 19434          (8047 /sec)
decisions             : 59372          (0.00 % random) (24585 /sec)
propagations          : 26135519       (10822103 /sec)
conflict literals     : 1067891        (44.62 % deleted)
Memory used           : 33.00 MB
CPU time              : 2.41501 s

INDETERMINATE
